\ Model Model_sub
\ LP format - for model browsing. Use MPS format to capture full model detail.
Minimize
  85.30495619871242 C0 + 106.3811952483905 C1 + 182.0248998096589 C2
   + 227.2811247620737 C3 - 83.30495619871242 C4 - 104.3811952483905 C5
   - 180.0248998096589 C6 - 225.2811247620737 C7
Subject To
 R0: <= 0
 R1: <= 0
Bounds
 C0 <= 10
 C1 <= 10
 C2 <= 10
 C3 <= 10
 C4 <= 10
 C5 <= 10
 C6 <= 10
 C7 <= 10
End
